Solving original (integer) problem with strategy gdp.hull_exact...
--- Job model.gms Start 02/14/26 17:12:24 52.2.0 d8e408be LEX-LEG x86 64bit/Linux
--- Applying:
    /package/gams/52.2/gmsprmun.txt
--- GAMS Parameters defined
    Input /local/scratch/a/sgusev/repos/k_means/data/gams_gurobi_gdp.hull_exact/no_mode/2026-02-14_17-12-24/original/model.gms
    Output /local/scratch/a/sgusev/repos/k_means/data/gams_gurobi_gdp.hull_exact/no_mode/2026-02-14_17-12-24/original/output.lst
    ScrDir /local/scratch/a/sgusev/repos/k_means/data/gams_gurobi_gdp.hull_exact/no_mode/2026-02-14_17-12-24/original/225a/
    SysDir /package/gams/52.2/
    CurDir /local/scratch/a/sgusev/repos/k_means/data/gams_gurobi_gdp.hull_exact/no_mode/2026-02-14_17-12-24/original/
    LogOption 3
    AppendLog 1
Licensee: David Bernal / SECQUOIA Research Group         G251008+0003Ac-GEN
          Purdue University, Davidson School of Chemical EngineeringDCE4838
          225a/gamslice.dat
          5a82958a-fbca-4a23
          node:66820903 mem:995 cores:48 ipport:59773 v:2                  
          Evaluation license: Not for commercial or production use
          The time-limited license stops working on : Jun 30, 2027
System information: 48 physical cores and 995 Gb physical memory detected
GAMS 52.2.0   Copyright (C) 1987-2025 GAMS Development. All rights reserved
--- Starting compilation
--- model.gms(1406) 2 Mb
--- $echo File /local/scratch/a/sgusev/repos/k_means/data/gams_gurobi_gdp.hull_exact/no_mode/2026-02-14_17-12-24/original/gurobi.opt
--- model.gms(2109) 2 Mb
--- Starting execution: elapsed 0:00:00.011
--- model.gms(1415) 3 Mb
--- Generating MINLP model GAMS_MODEL
--- model.gms(1419) 5 Mb
---   421 rows  216 columns  1,017 non-zeroes
---   693 nl-code  132 nl-non-zeroes
---   33 discrete-columns
--- Range statistics (absolute non-zero finite values)
--- RHS       [min, max] : [ 1.000E+00, 1.000E+00] - Zero values observed as well
--- Bound     [min, max] : [ 1.000E+00, 4.400E+01] - Zero values observed as well
--- Matrix    [min, max] : [ 1.000E+00, 4.400E+01] - Zero values observed as well
--- model.gms(1419) 3 Mb
--- Executing GUROBI (Solvelink=5): elapsed 0:00:00.015
Reading parameter(s) from "/local/scratch/a/sgusev/repos/k_means/data/gams_gurobi_gdp.hull_exact/no_mode/2026-02-14_17-12-24/original/gurobi.opt"
>>  NonConvex 2
>>  Threads 1
>>  MIPGap 1e-06
>>  MIPGapAbs 1e-10
>>  FeasibilityTol 1e-06
>>  OptimalityTol 1e-06
>>  IntFeasTol 1e-05
Finished reading from "/local/scratch/a/sgusev/repos/k_means/data/gams_gurobi_gdp.hull_exact/no_mode/2026-02-14_17-12-24/original/gurobi.opt"

... GRB_LICENSE_FILE = /local/scratch/a/sgusev/gurobi.lic

    Gurobi           52.2.0 d8e408be Dec 8, 2025           LEG x86 64bit/Linux    

... GAMS/Gurobi Link license.
... GMO Q Extraction (ThreePass): 0.00s

    Gurobi Optimizer version 13.0.0 build v13.0.0rc1 (linux64 - "Oracle Linux Server 9.7")
    
    CPU model: AMD EPYC 7643 48-Core Processor, instruction set [SSE2|AVX|AVX2]
    Thread count: 48 physical cores, 96 logical processors, using up to 1 threads
    
    Non-default parameters:
    TimeLimit  300
    MIPGap  1e-06
    LogToConsole  0
    NonConvex  2
    Threads  1
    
    Optimize a model with 387 rows, 215 columns and 873 nonzeros (Min)
    Model fingerprint: 0xd4deb15b
    Model has 11 linear objective coefficients
    Model has 33 quadratic constraints
    Variable types: 182 continuous, 33 integer (0 binary)
    Coefficient statistics:
      Matrix range     [1e+00, 4e+01]
      QMatrix range    [2e-02, 2e+00]
      Objective range  [1e+00, 1e+00]
      Bounds range     [1e+00, 4e+01]
      RHS range        [1e+00, 1e+00]
    Presolve removed 66 rows and 77 columns
    Presolve time: 0.00s
    Presolved: 522 rows, 303 columns, 1360 nonzeros
    Presolved model has 66 quadratic constraint(s)
    Variable types: 270 continuous, 33 integer (33 binary)
    
    Root relaxation: objective 0.000000e+00, 126 iterations, 0.00 seconds (0.00 work units)
    
        Nodes    |    Current Node    |     Objective Bounds      |     Work
     Expl Unexpl |  Obj  Depth IntInf | Incumbent    BestBd   Gap | It/Node Time
    
         0     0    0.00000    0    8          -    0.00000      -     -    0s
    H    0     0                       5.1522532    0.00000   100%     -    0s
         0     0    0.00000    0    6    5.15225    0.00000   100%     -    0s
         0     0    0.00000    0   12    5.15225    0.00000   100%     -    0s
    H    0     0                       3.3646231    0.00000   100%     -    0s
         0     0    0.00000    0   14    3.36462    0.00000   100%     -    0s
         0     0    0.00000    0   20    3.36462    0.00000   100%     -    0s
         0     0    0.00000    0    6    3.36462    0.00000   100%     -    0s
         0     0    0.00000    0    6    3.36462    0.00000   100%     -    0s
         0     0    0.00000    0   14    3.36462    0.00000   100%     -    0s
         0     0    0.00000    0   10    3.36462    0.00000   100%     -    0s
         0     0    0.00000    0   17    3.36462    0.00000   100%     -    0s
         0     0    0.00000    0   17    3.36462    0.00000   100%     -    0s
         0     0    0.00000    0   14    3.36462    0.00000   100%     -    0s
         0     0    0.00000    0   14    3.36462    0.00000   100%     -    0s
         0     0    0.00000    0   18    3.36462    0.00000   100%     -    0s
         0     0    0.00000    0   18    3.36462    0.00000   100%     -    0s
         0     0    0.00000    0   18    3.36462    0.00000   100%     -    0s
         0     0    0.00000    0   16    3.36462    0.00000   100%     -    0s
         0     0    0.00000    0   17    3.36462    0.00000   100%     -    0s
         0     0    0.00000    0   14    3.36462    0.00000   100%     -    0s
         0     0    0.00000    0   16    3.36462    0.00000   100%     -    0s
         0     0    0.00000    0   16    3.36462    0.00000   100%     -    0s
         0     0    0.00000    0   17    3.36462    0.00000   100%     -    0s
         0     0    0.00000    0   17    3.36462    0.00000   100%     -    0s
         0     0    0.00000    0   16    3.36462    0.00000   100%     -    0s
         0     0    0.00000    0   14    3.36462    0.00000   100%     -    0s
         0     0    0.00000    0   18    3.36462    0.00000   100%     -    0s
         0     0    0.00000    0   16    3.36462    0.00000   100%     -    0s
         0     0    0.00000    0   14    3.36462    0.00000   100%     -    0s
         0     0    0.00000    0   10    3.36462    0.00000   100%     -    0s
         0     0    0.00000    0   12    3.36462    0.00000   100%     -    0s
         0     0    0.00000    0   12    3.36462    0.00000   100%     -    0s
         0     0    0.00000    0   14    3.36462    0.00000   100%     -    0s
         0     0    0.00000    0   14    3.36462    0.00000   100%     -    0s
         0     0    0.00000    0   18    3.36462    0.00000   100%     -    0s
         0     0    0.00000    0   13    3.36462    0.00000   100%     -    0s
         0     0    0.00000    0   13    3.36462    0.00000   100%     -    0s
         0     0    0.00000    0   13    3.36462    0.00000   100%     -    0s
         0     0    0.00000    0   16    3.36462    0.00000   100%     -    0s
         0     0    0.00000    0   14    3.36462    0.00000   100%     -    0s
         0     0    0.00000    0   16    3.36462    0.00000   100%     -    0s
         0     0    0.00000    0   16    3.36462    0.00000   100%     -    0s
         0     0    0.00000    0   19    3.36462    0.00000   100%     -    0s
         0     0    0.00000    0   17    3.36462    0.00000   100%     -    0s
         0     0    0.00000    0   14    3.36462    0.00000   100%     -    0s
         0     0    0.00000    0    8    3.36462    0.00000   100%     -    0s
         0     0    0.00000    0   14    3.36462    0.00000   100%     -    0s
         0     0    0.00000    0   14    3.36462    0.00000   100%     -    0s
         0     0    0.00000    0   16    3.36462    0.00000   100%     -    0s
         0     0    0.00000    0   13    3.36462    0.00000   100%     -    0s
         0     0    0.00000    0   18    3.36462    0.00000   100%     -    0s
         0     0    0.00000    0   18    3.36462    0.00000   100%     -    0s
         0     0    0.00000    0   18    3.36462    0.00000   100%     -    0s
         0     0    0.00000    0   18    3.36462    0.00000   100%     -    0s
         0     0    0.00000    0   18    3.36462    0.00000   100%     -    0s
         0     0    0.00000    0   17    3.36462    0.00000   100%     -    0s
         0     0    0.00000    0   17    3.36462    0.00000   100%     -    0s
         0     0    0.00000    0   17    3.36462    0.00000   100%     -    0s
         0     0    0.00000    0   20    3.36462    0.00000   100%     -    0s
         0     0    0.00000    0   18    3.36462    0.00000   100%     -    0s
         0     0    0.00000    0   21    3.36462    0.00000   100%     -    0s
         0     0    0.00000    0   18    3.36462    0.00000   100%     -    0s
         0     0    0.00000    0   20    3.36462    0.00000   100%     -    0s
         0     0    0.00000    0   20    3.36462    0.00000   100%     -    0s
         0     0    0.00000    0   20    3.36462    0.00000   100%     -    0s
         0     0    0.00000    0   16    3.36462    0.00000   100%     -    0s
         0     0    0.00000    0   16    3.36462    0.00000   100%     -    0s
         0     0    0.00000    0   15    3.36462    0.00000   100%     -    0s
         0     0    0.00000    0   19    3.36462    0.00000   100%     -    0s
         0     0    0.00000    0   18    3.36462    0.00000   100%     -    0s
         0     0    0.00000    0   20    3.36462    0.00000   100%     -    0s
         0     0    0.00000    0   18    3.36462    0.00000   100%     -    0s
         0     0    0.00000    0   18    3.36462    0.00000   100%     -    0s
         0     0    0.00000    0   13    3.36462    0.00000   100%     -    0s
         0     0    0.00000    0   19    3.36462    0.00000   100%     -    0s
         0     0    0.00000    0    8    3.36462    0.00000   100%     -    0s
         0     0    0.00000    0   14    3.36462    0.00000   100%     -    0s
         0     0    0.00000    0   14    3.36462    0.00000   100%     -    0s
         0     0    0.00000    0   10    3.36462    0.00000   100%     -    0s
         0     0    0.00000    0    9    3.36462    0.00000   100%     -    0s
         0     0    0.00000    0   16    3.36462    0.00000   100%     -    0s
         0     0    0.00000    0   14    3.36462    0.00000   100%     -    0s
         0     0    0.00000    0   14    3.36462    0.00000   100%     -    0s
         0     0    0.00000    0   14    3.36462    0.00000   100%     -    0s
         0     0    0.00000    0   16    3.36462    0.00000   100%     -    0s
         0     0    0.00000    0   16    3.36462    0.00000   100%     -    0s
         0     0    0.00000    0   16    3.36462    0.00000   100%     -    0s
         0     0    0.00000    0   16    3.36462    0.00000   100%     -    0s
         0     0    0.00000    0   14    3.36462    0.00000   100%     -    0s
         0     0    0.00000    0   12    3.36462    0.00000   100%     -    0s
         0     0    0.00000    0   14    3.36462    0.00000   100%     -    0s
         0     0    0.00000    0   14    3.36462    0.00000   100%     -    0s
         0     0    0.00000    0   14    3.36462    0.00000   100%     -    0s
         0     0    0.00000    0   14    3.36462    0.00000   100%     -    0s
         0     0    0.00000    0   14    3.36462    0.00000   100%     -    0s
         0     0    0.00000    0   14    3.36462    0.00000   100%     -    0s
         0     0    0.00000    0   16    3.36462    0.00000   100%     -    0s
         0     0    0.00000    0   12    3.36462    0.00000   100%     -    0s
         0     0    0.00000    0   14    3.36462    0.00000   100%     -    0s
         0     0    0.00000    0   14    3.36462    0.00000   100%     -    0s
         0     0    0.00000    0   20    3.36462    0.00000   100%     -    0s
         0     0    0.00000    0   16    3.36462    0.00000   100%     -    0s
         0     0    0.00000    0   23    3.36462    0.00000   100%     -    0s
         0     0    0.00000    0   15    3.36462    0.00000   100%     -    0s
         0     0    0.00000    0   14    3.36462    0.00000   100%     -    0s
         0     0    0.00000    0   14    3.36462    0.00000   100%     -    0s
         0     0    0.00000    0   20    3.36462    0.00000   100%     -    0s
         0     0    0.00000    0   14    3.36462    0.00000   100%     -    0s
         0     0    0.00000    0   16    3.36462    0.00000   100%     -    0s
         0     0    0.00000    0   14    3.36462    0.00000   100%     -    0s
         0     0    0.00000    0   14    3.36462    0.00000   100%     -    0s
         0     0    0.00000    0   14    3.36462    0.00000   100%     -    0s
         0     0    0.00000    0   14    3.36462    0.00000   100%     -    0s
         0     0    0.00000    0   10    3.36462    0.00000   100%     -    0s
         0     0    0.00000    0   18    3.36462    0.00000   100%     -    0s
         0     0    0.00000    0   18    3.36462    0.00000   100%     -    0s
         0     0    0.00000    0   18    3.36462    0.00000   100%     -    0s
         0     0    0.00000    0   12    3.36462    0.00000   100%     -    0s
         0     0    0.00000    0   14    3.36462    0.00000   100%     -    0s
         0     0    0.00000    0   14    3.36462    0.00000   100%     -    0s
         0     0    0.00000    0   17    3.36462    0.00000   100%     -    0s
         0     0    0.00000    0   17    3.36462    0.00000   100%     -    0s
         0     0    0.00000    0   19    3.36462    0.00000   100%     -    0s
         0     0    0.00000    0   18    3.36462    0.00000   100%     -    0s
         0     0    0.00000    0   20    3.36462    0.00000   100%     -    0s
         0     0    0.00000    0   19    3.36462    0.00000   100%     -    0s
         0     0    0.00000    0   15    3.36462    0.00000   100%     -    0s
         0     0    0.00000    0   15    3.36462    0.00000   100%     -    0s
         0     0    0.00000    0   19    3.36462    0.00000   100%     -    0s
         0     0    0.00000    0   12    3.36462    0.00000   100%     -    0s
         0     0    0.00000    0   16    3.36462    0.00000   100%     -    0s
         0     0    0.00000    0   16    3.36462    0.00000   100%     -    0s
         0     0    0.00000    0   13    3.36462    0.00000   100%     -    0s
         0     0    0.00000    0   13    3.36462    0.00000   100%     -    0s
         0     0    0.00000    0   16    3.36462    0.00000   100%     -    0s
         0     0    0.00000    0   15    3.36462    0.00000   100%     -    0s
         0     0    0.00000    0   14    3.36462    0.00000   100%     -    0s
         0     0    0.00000    0   14    3.36462    0.00000   100%     -    0s
         0     0    0.00000    0   14    3.36462    0.00000   100%     -    0s
         0     0    0.00000    0   14    3.36462    0.00000   100%     -    0s
         0     0    0.00000    0   14    3.36462    0.00000   100%     -    0s
         0     0    0.00000    0   12    3.36462    0.00000   100%     -    0s
         0     0    0.00000    0   16    3.36462    0.00000   100%     -    0s
         0     0    0.00000    0   16    3.36462    0.00000   100%     -    0s
         0     0    0.00000    0   20    3.36462    0.00000   100%     -    0s
         0     0    0.00000    0   15    3.36462    0.00000   100%     -    0s
         0     0    0.00000    0   16    3.36462    0.00000   100%     -    0s
         0     0    0.00000    0   16    3.36462    0.00000   100%     -    0s
         0     0    0.00000    0   20    3.36462    0.00000   100%     -    0s
         0     0    0.00000    0   15    3.36462    0.00000   100%     -    0s
         0     0    0.00000    0   16    3.36462    0.00000   100%     -    0s
         0     0    0.00000    0   10    3.36462    0.00000   100%     -    0s
         0     0    0.00000    0   16    3.36462    0.00000   100%     -    0s
         0     0    0.00000    0   16    3.36462    0.00000   100%     -    0s
         0     0    0.00000    0   18    3.36462    0.00000   100%     -    0s
         0     0    0.00000    0   18    3.36462    0.00000   100%     -    0s
         0     0    0.00000    0   18    3.36462    0.00000   100%     -    0s
         0     0    0.00000    0   14    3.36462    0.00000   100%     -    0s
         0     0    0.00000    0   17    3.36462    0.00000   100%     -    0s
         0     0    0.00000    0   15    3.36462    0.00000   100%     -    0s
         0     0    0.00000    0   19    3.36462    0.00000   100%     -    0s
         0     0    0.00000    0   17    3.36462    0.00000   100%     -    0s
         0     0    0.00000    0   20    3.36462    0.00000   100%     -    0s
         0     0    0.00000    0   18    3.36462    0.00000   100%     -    0s
         0     0    0.00000    0   22    3.36462    0.00000   100%     -    0s
         0     0    0.00000    0   15    3.36462    0.00000   100%     -    0s
         0     0    0.00000    0   15    3.36462    0.00000   100%     -    0s
         0     0    0.00000    0   14    3.36462    0.00000   100%     -    0s
         0     0    0.00000    0   15    3.36462    0.00000   100%     -    0s
         0     0    0.00000    0   12    3.36462    0.00000   100%     -    0s
         0     0    0.00000    0   17    3.36462    0.00000   100%     -    0s
         0     0    0.00000    0   14    3.36462    0.00000   100%     -    0s
         0     0    0.00000    0   16    3.36462    0.00000   100%     -    0s
         0     0    0.00000    0   16    3.36462    0.00000   100%     -    0s
         0     0    0.00000    0   18    3.36462    0.00000   100%     -    0s
         0     0    0.00000    0   15    3.36462    0.00000   100%     -    0s
         0     0    0.00000    0   19    3.36462    0.00000   100%     -    0s
         0     0    0.00000    0   17    3.36462    0.00000   100%     -    0s
         0     0    0.00000    0   17    3.36462    0.00000   100%     -    0s
         0     0    0.00000    0   13    3.36462    0.00000   100%     -    0s
         0     0    0.00000    0   16    3.36462    0.00000   100%     -    0s
         0     0    0.00000    0   14    3.36462    0.00000   100%     -    0s
         0     0    0.00000    0   14    3.36462    0.00000   100%     -    0s
         0     0    0.00000    0   14    3.36462    0.00000   100%     -    0s
         0     0    0.00000    0   14    3.36462    0.00000   100%     -    0s
         0     0    0.00000    0   14    3.36462    0.00000   100%     -    0s
         0     0    0.00000    0   14    3.36462    0.00000   100%     -    0s
         0     0    0.00000    0   14    3.36462    0.00000   100%     -    0s
         0     0    0.00000    0   18    3.36462    0.00000   100%     -    0s
         0     0    0.00000    0   16    3.36462    0.00000   100%     -    0s
         0     0    0.00000    0   22    3.36462    0.00000   100%     -    0s
         0     0    0.00000    0   18    3.36462    0.00000   100%     -    0s
         0     0    0.00000    0   16    3.36462    0.00000   100%     -    0s
         0     0    0.00000    0   15    3.36462    0.00000   100%     -    0s
         0     0    0.00000    0   16    3.36462    0.00000   100%     -    0s
         0     0    0.00000    0   14    3.36462    0.00000   100%     -    0s
         0     0    0.00000    0   16    3.36462    0.00000   100%     -    0s
         0     0    0.00000    0   16    3.36462    0.00000   100%     -    0s
         0     0    0.00000    0   18    3.36462    0.00000   100%     -    0s
         0     0    0.00000    0   18    3.36462    0.00000   100%     -    0s
         0     0    0.00000    0   18    3.36462    0.00000   100%     -    0s
         0     0    0.00000    0   11    3.36462    0.00000   100%     -    0s
         0     0    0.00000    0   16    3.36462    0.00000   100%     -    0s
         0     0    0.00000    0   12    3.36462    0.00000   100%     -    0s
    H    0     0                       3.0236926    0.00000   100%     -    0s
    H    0     0                       3.0236913    0.00000   100%     -    0s
    H    0     0                       2.2440350    0.00000   100%     -    0s
         0     2    0.00000    0    8    2.24404    0.00000   100%     -    0s
    H   22    22                       2.1722012    0.00000   100%  70.5    0s
    H   90    48                       1.9955827    0.00000   100%  40.5    0s
    H  106    54                       1.9955822    0.00000   100%  39.6    0s
    H  141    69                       1.9955820    0.00000   100%  39.6    0s
    H  216    88                       1.9150577    0.00000   100%  38.8    0s
    H  320    34                       0.8837705    0.14689  83.4%  39.8    1s
    
    Cutting planes:
      Gomory: 2
      Implied bound: 14
      MIR: 9
      Flow cover: 9
      Inf proof: 3
      RLT: 17
      Relax-and-lift: 2
      BQP: 1
    
    Explored 426 nodes (43530 simplex iterations) in 1.11 seconds (1.00 work units)
    Thread count was 1 (of 96 available processors)
    
    Solution count 9: 0.88377 0.88377 1.91506 ... 5.15225
    No other solutions better than 0.88377
    
    Optimal solution found (tolerance 1.00e-06)
    Best objective 8.837704425439e-01, best bound 8.837704425439e-01, gap 0.0000%
    
    User-callback calls 541, time in user-callback 0.00 sec

... Solving fixed model...

    Gurobi Optimizer version 13.0.0 build v13.0.0rc1 (linux64 - "Oracle Linux Server 9.7")
    
    CPU model: AMD EPYC 7643 48-Core Processor, instruction set [SSE2|AVX|AVX2]
    Thread count: 48 physical cores, 96 logical processors, using up to 1 threads
    
    Non-default parameters:
    TimeLimit  300
    MIPGap  1e-06
    LogToConsole  0
    NonConvex  2
    Threads  1
    
    Optimize a model with 387 rows, 215 columns and 873 nonzeros (Min)
    Model fingerprint: 0x7223a33e
    Model has 11 linear objective coefficients
    Model has 33 quadratic constraints
    Coefficient statistics:
      Matrix range     [1e+00, 4e+01]
      QMatrix range    [2e-02, 2e+00]
      Objective range  [1e+00, 1e+00]
      Bounds range     [1e+00, 4e+01]
      RHS range        [1e+00, 1e+00]
    Presolve removed 385 rows and 199 columns
    Presolve time: 0.00s
    Presolved: 43 rows, 54 columns, 104 nonzeros
    Presolved model has 11 second-order cone constraints
    Ordering time: 0.00s
    
    Barrier statistics:
     AA' NZ     : 2.860e+02
     Factor NZ  : 4.490e+02
     Factor Ops : 6.209e+03 (less than 1 second per iteration)
     Threads    : 1
    
                      Objective                Residual
    Iter       Primal          Dual         Primal    Dual     Compl     Time
       0   3.89869488e+02 -1.74090773e+02  1.43e+01 2.44e+00  1.15e+01     0s
       1   4.02670738e+01 -3.89194826e+01  1.57e-05 2.68e-06  1.07e+00     0s
       2   1.55367812e+00 -1.29085094e+00  2.69e-07 8.06e-08  3.84e-02     0s
       3   1.09430690e+00  5.28132197e-01  1.20e-08 7.21e-09  7.65e-03     0s
       4   9.00286954e-01  8.40393881e-01  6.59e-14 6.99e-10  8.09e-04     0s
       5   8.85040899e-01  8.82730378e-01  1.18e-12 8.29e-12  3.12e-05     0s
       6   8.83947891e-01  8.83681115e-01  6.35e-12 5.01e-13  3.61e-06     0s
       7   8.83778971e-01  8.83757355e-01  5.63e-10 2.63e-13  2.92e-07     0s
       8   8.83773361e-01  8.83764948e-01  1.87e-09 4.90e-13  1.14e-07     0s
       9   8.83772598e-01  8.83767714e-01  1.53e-09 8.68e-13  6.60e-08     0s
      10   8.83770824e-01  8.83768648e-01  2.39e-09 3.55e-12  2.94e-08     0s
      11   8.83770451e-01  8.83769684e-01  3.54e-09 2.92e-12  1.04e-08     0s
    
    Barrier solved model in 11 iterations and 0.00 seconds (0.00 work units)
    Optimal objective 8.83770451e-01
    
    
    User-callback calls 0, time in user-callback 0.00 sec
    Warning: to get QCP duals, please set parameter QCPDual to 1

--- Reading solution for model GAMS_MODEL
***
*** Solver did not provide marginals for model GAMS_MODEL
***
--- Executing after solve: elapsed 0:00:01.154
--- model.gms(1422) 3 Mb
--- model.gms(2109) 5 Mb
--- Putfile results /local/scratch/a/sgusev/repos/k_means/data/gams_gurobi_gdp.hull_exact/no_mode/2026-02-14_17-12-24/original/results.dat
--- Putfile statresults /local/scratch/a/sgusev/repos/k_means/data/gams_gurobi_gdp.hull_exact/no_mode/2026-02-14_17-12-24/original/resultsstat.dat
*** Status: Normal completion
--- Job model.gms Stop 02/14/26 17:12:26 elapsed 0:00:01.156
Original problem solved. Time taken: 1.689223289489746 seconds
Original objective value: 0.883770450587227
